&control
calculation='scf'
outdir='out'
prefix='si35h36'
pseudo_dir="../pseudos/"
/
&system
ibrav=1, celldm(1) =37.5, nat=151, ntyp= 2,
ecutwfc =15.0, nbnd=200
/
&electrons
conv_thr =  1.0d-7
/
ATOMIC_SPECIES
Si 28.086  Si_ONCV_PBE-1.1.UPF
H  1.008  H_ONCV_PBE-1.0.UPF

ATOMIC_POSITIONS (angstrom)
Si           1.355719       -1.351344        4.102894
Si           0.000003        0.008707        5.466647
Si          -1.355714        1.364406        4.098570
Si           1.353532       -4.099650        1.363327
Si           0.013773       -2.716148        2.724801
Si          -1.366629       -1.362279        1.367715
Si          -2.720457        0.022437        2.720442
Si          -4.099654        1.362221        1.354632
Si          -0.004353       -5.466645        0.008706
Si          -1.360063       -4.101811       -1.350265
Si          -2.722639       -2.718328       -0.011607
Si          -4.101817       -1.355690       -1.354637
Si          -5.466652        0.004353       -0.000003
Si           4.099656       -1.357899        1.358959
Si           2.720461       -0.013772        2.720496
Si           1.366631        1.366628        1.363367
Si          -0.013770        2.724814        2.716137
Si          -1.353530        4.103972        1.350263
Si           2.718306       -2.722610        0.020272
Si           1.364454       -1.368803       -1.363366
Si          -0.000000        0.000000        0.000000
Si          -1.364456        1.364453       -1.367717
Si          -2.718305        2.722659        0.011604
Si          -0.018106       -2.724789       -2.716137
Si          -1.357880       -1.362245       -4.098572
Si          -2.720487       -0.018104       -2.720446
Si           5.466652       -0.004353        0.000003
Si           4.101815        1.351368       -1.358954
Si           2.722638        2.718276       -0.020269
Si           1.360061        4.097489       -1.363325
Si           0.004353        5.466645       -0.008706
Si           2.720483        0.009439       -2.720493
Si           1.357874        1.349183       -4.102892
Si           0.018103        2.716122       -2.724801
Si          -0.000004       -0.008706       -5.466647
H            2.233946       -2.229605        4.961159
H           -0.860994       -0.849508        6.354853
H            0.861002        0.869745        6.352113
H           -2.233940        2.245397        4.954035
H            2.231777       -4.955815        2.243618
H           -0.874930       -3.577500        3.589611
H           -3.584599       -0.863516        3.585290
H           -4.955820        2.243229        2.232157
H           -0.865372       -6.351426        0.870430
H            0.855253       -6.355536       -0.850192
H           -2.239673       -4.959375       -2.227827
H           -3.586760       -3.579659        0.877784
H           -4.959383       -2.235333       -2.232164
H           -6.352804        0.864001       -0.861686
H           -6.354174       -0.853882        0.861678
H            4.955822       -2.236108        2.239285
H            3.584604        0.874932        3.582517
H            0.874935        3.588916        3.578196
H           -2.231774        4.962936        2.227824
H            3.581052       -3.588145       -0.866368
H           -3.581053        3.585367       -0.877788
H            0.869222       -3.590305       -3.578195
H           -2.237507       -2.241836       -4.954037
H           -3.583215        0.869224       -3.585295
H            6.352803       -0.866741       -0.858938
H            6.354176        0.856622        0.858946
H            4.959380        2.228212       -2.239279
H            3.586761        3.582437        0.866372
H            2.239670        4.952254       -2.243615
H           -0.855254        6.352796       -0.870431
H            0.865373        6.354166        0.850194
H            3.583210       -0.880639       -3.582512
H            2.237500        2.226044       -4.961156
H           -0.869227        3.578889       -3.589612
H           -0.859632        0.850878       -6.354854
H            0.859624       -0.871116       -6.352112
H            8.994171       -5.000905       -5.586048
H            8.255732       -4.809882       -5.659548
H            6.475243        6.562696        8.078455
H            6.696808        5.839072        7.958200
H           -8.109697       -3.277562        6.474039
H           -8.536008       -3.241908        5.838294
H            8.335640        3.275063        7.348302
H            8.226472        3.040252        6.627102
H           -8.081960        5.878978        8.642397
H           -7.404682        5.903623        8.999987
H            6.874340       -8.761249       -8.363289
H            7.619382       -8.703076       -8.532735
H            9.001878        8.999960        4.585441
H            8.446549        8.489587        4.720763
H           -2.828873       -7.550878       -8.621556
H           -2.620604       -6.915029       -8.995057
H            8.855609        8.031780       -0.276689
H            8.188118        8.228153        0.044369
H           -7.760581        2.180237        1.607011
H           -7.450896        2.870345        1.729610
H           -7.313517       -5.251190        1.552407
H           -7.923131       -5.410076        1.988652
H           -8.807056        6.621180       -3.669302
H           -8.375766        6.476069       -3.052767
H           -0.542379       -8.755301       -8.479260
H            0.124434       -8.999965       -8.766809
H           -7.296949       -3.330414       -6.094205
H           -7.220359       -3.877389       -6.625370
H            8.218746        8.293016       -5.252930
H            7.517272        7.999398       -5.158562
H            7.102034        1.170376       -8.449456
H            6.368693        1.083558       -8.244869
H           -7.211295       -6.047838        7.677440
H           -7.963525       -6.193453        7.666096
H           -7.576927       -8.702861        5.968880
H           -6.833685       -8.518040        5.993703
H           -5.640083       -6.235542       -7.511948
H           -5.250224       -6.213771       -6.852616
H           -6.572638       -8.984553        8.991958
H           -6.694727       -8.300600        8.668714
H            6.558257       -7.824315       -0.895179
H            7.245014       -7.520980       -1.048590
H            8.666058        4.914584        2.761705
H            8.997530        4.229249        2.849033
H            6.583591       -5.417999       -7.121934
H            6.809372       -4.743001       -7.405806
H           -6.677746       -8.273815       -2.667876
H           -6.791652       -8.980776       -2.395084
H           -4.643973       -6.328725        2.487574
H           -5.398567       -6.259399        2.373708
H           -4.347211       -5.652397        8.623294
H           -3.685464       -5.566556        8.999998
H            7.543387        5.856142        4.562403
H            7.351474        6.581508        4.717953
H            5.613898        3.532718        9.000004
H            6.316215        3.835129        8.950190
H            6.208370        3.384947        4.376376
H            6.972877        3.332894        4.378394
H           -8.921022        8.719514       -7.826330
H           -8.460485        8.957676       -8.390571
H            4.537212        7.559343        7.230474
H            4.817615        8.269841        7.291708
H            5.922942        8.939966       -7.634421
H            6.082848        8.241511       -7.906035
H           -6.828700       -0.463422        6.683695
H           -7.442043       -0.411159        7.140052
H           -5.390718       -8.363238       -5.510465
H           -4.689505       -8.195733       -5.250802
H           -8.672624       -5.816012       -5.299308
H           -8.144011       -6.011793       -5.818366
H            7.317318       -6.888893        5.150873
H            6.674256       -7.050884        5.534819
H           -2.308191       -7.896861       -4.043904
H           -1.971327       -7.208673       -4.054032
H           -8.245402        2.465641       -7.527581
H           -7.956318        3.064917       -7.147472
H           -7.889412        6.665507       -7.864402
H           -7.980601        6.643968       -7.103873
H           -8.462586       -6.072179       -2.224943
H           -8.583368       -5.592938       -2.810539

K_POINTS gamma
