&INPUTPP
  plot_num=7,
  kpoint(1) = 1
  kpoint(2) = 1
  kband(1)=1
  kband(2)=10
!  filplot='test.pp'
prefix="zn_05_left"
outdir="out"
/
&PLOT
  iflag=3,
  output_format=6,
  fileout="_left.cube"
/
