&CONTROL
calculation =   "scf",
nstep=500,
outdir="out"
pseudo_dir="../pseudos/"
prefix='right'
/
&SYSTEM
ibrav = 0,
nat  =  2 ,
ntyp  =  1 ,
nbnd  =  30,
ecutwfc  =  60.0 ,
input_dft = "PBE"
assume_isolated='mt'
nspin = 2,
tot_magnetization = 1
tot_charge=1
/
&ELECTRONS
electron_maxstep = 1000
conv_thr    = 1.D-8,
diago_full_acc = .true.
/
&IONS
/
&CELL
/
K_POINTS gamma
ATOMIC_SPECIES
Zn 0.0 Zn_ONCV_PBE-1.0.UPF

CELL_PARAMETERS (angstrom)
10.0    0.0 0.0
0.0 10.0    0.0
0.0 0.0 15.0

ATOMIC_POSITIONS (angstrom)
Zn  5.0 5.0 5.0
Zn  5.0 5.0 10.0


EPCDFT
1 1e-6 4.0 20
delta_charge 2 2 1 1 -1.0 0.328

